p edge 100 2475
e 1 2
e 1 8
e 1 10
e 1 11
e 1 13
e 1 14
e 1 16
e 1 17
e 1 19
e 1 28
e 1 29
e 1 31
e 1 32
e 1 33
e 1 37
e 1 39
e 1 40
e 1 41
e 1 42
e 1 43
e 1 46
e 1 48
e 1 49
e 1 51
e 1 52
e 1 57
e 1 58
e 1 60
e 1 61
e 1 62
e 1 64
e 1 65
e 1 66
e 1 68
e 1 70
e 1 74
e 1 77
e 1 78
e 1 80
e 1 86
e 1 87
e 1 89
e 1 93
e 1 94
e 1 95
e 1 98
e 1 99
e 2 4
e 2 6
e 2 7
e 2 13
e 2 14
e 2 15
e 2 16
e 2 17
e 2 19
e 2 21
e 2 22
e 2 24
e 2 29
e 2 30
e 2 31
e 2 32
e 2 33
e 2 34
e 2 35
e 2 36
e 2 41
e 2 42
e 2 43
e 2 45
e 2 46
e 2 49
e 2 50
e 2 51
e 2 54
e 2 55
e 2 56
e 2 57
e 2 60
e 2 63
e 2 66
e 2 67
e 2 70
e 2 76
e 2 85
e 2 87
e 2 90
e 2 91
e 2 92
e 2 94
e 2 95
e 2 96
e 3 4
e 3 5
e 3 6
e 3 7
e 3 9
e 3 12
e 3 18
e 3 21
e 3 23
e 3 24
e 3 25
e 3 26
e 3 28
e 3 29
e 3 30
e 3 31
e 3 32
e 3 34
e 3 35
e 3 38
e 3 40
e 3 41
e 3 42
e 3 43
e 3 45
e 3 46
e 3 47
e 3 48
e 3 49
e 3 50
e 3 53
e 3 59
e 3 60
e 3 63
e 3 66
e 3 67
e 3 68
e 3 69
e 3 71
e 3 72
e 3 73
e 3 74
e 3 77
e 3 78
e 3 80
e 3 81
e 3 82
e 3 84
e 3 85
e 3 86
e 3 87
e 3 90
e 3 91
e 3 95
e 3 96
e 4 5
e 4 8
e 4 9
e 4 11
e 4 13
e 4 16
e 4 17
e 4 18
e 4 20
e 4 22
e 4 23
e 4 24
e 4 31
e 4 32
e 4 35
e 4 36
e 4 38
e 4 39
e 4 40
e 4 41
e 4 46
e 4 48
e 4 49
e 4 50
e 4 53
e 4 55
e 4 56
e 4 57
e 4 59
e 4 60
e 4 62
e 4 65
e 4 68
e 4 69
e 4 70
e 4 73
e 4 74
e 4 76
e 4 79
e 4 83
e 4 85
e 4 87
e 4 91
e 4 92
e 4 93
e 4 94
e 4 98
e 4 99
e 5 7
e 5 12
e 5 14
e 5 17
e 5 19
e 5 22
e 5 28
e 5 29
e 5 31
e 5 34
e 5 35
e 5 39
e 5 40
e 5 41
e 5 45
e 5 46
e 5 49
e 5 51
e 5 52
e 5 53
e 5 54
e 5 59
e 5 60
e 5 62
e 5 63
e 5 64
e 5 65
e 5 66
e 5 69
e 5 73
e 5 75
e 5 76
e 5 77
e 5 80
e 5 85
e 5 86
e 5 87
e 5 92
e 5 93
e 5 94
e 5 95
e 5 96
e 5 98
e 5 100
e 6 7
e 6 8
e 6 9
e 6 13
e 6 15
e 6 17
e 6 18
e 6 19
e 6 21
e 6 23
e 6 24
e 6 25
e 6 29
e 6 30
e 6 31
e 6 32
e 6 34
e 6 43
e 6 44
e 6 45
e 6 47
e 6 48
e 6 52
e 6 55
e 6 57
e 6 58
e 6 59
e 6 60
e 6 61
e 6 63
e 6 64
e 6 65
e 6 66
e 6 67
e 6 70
e 6 71
e 6 73
e 6 74
e 6 76
e 6 78
e 6 79
e 6 81
e 6 82
e 6 83
e 6 85
e 6 87
e 6 90
e 6 91
e 6 92
e 6 93
e 6 94
e 6 95
e 6 99
e 7 9
e 7 10
e 7 12
e 7 13
e 7 15
e 7 16
e 7 17
e 7 19
e 7 20
e 7 22
e 7 29
e 7 30
e 7 32
e 7 33
e 7 35
e 7 39
e 7 40
e 7 43
e 7 45
e 7 46
e 7 47
e 7 49
e 7 51
e 7 52
e 7 56
e 7 59
e 7 62
e 7 64
e 7 65
e 7 67
e 7 69
e 7 77
e 7 79
e 7 80
e 7 82
e 7 85
e 7 86
e 7 87
e 7 88
e 7 89
e 7 90
e 7 92
e 7 93
e 7 95
e 7 96
e 7 97
e 7 99
e 7 100
e 8 9
e 8 10
e 8 11
e 8 12
e 8 13
e 8 14
e 8 15
e 8 16
e 8 20
e 8 21
e 8 22
e 8 23
e 8 25
e 8 26
e 8 28
e 8 29
e 8 30
e 8 31
e 8 33
e 8 36
e 8 40
e 8 42
e 8 44
e 8 46
e 8 48
e 8 50
e 8 51
e 8 52
e 8 53
e 8 54
e 8 55
e 8 56
e 8 57
e 8 61
e 8 62
e 8 63
e 8 64
e 8 69
e 8 73
e 8 76
e 8 78
e 8 80
e 8 81
e 8 82
e 8 88
e 8 90
e 8 96
e 8 98
e 8 99
e 9 10
e 9 12
e 9 13
e 9 16
e 9 17
e 9 19
e 9 21
e 9 22
e 9 23
e 9 24
e 9 26
e 9 29
e 9 30
e 9 31
e 9 32
e 9 37
e 9 38
e 9 39
e 9 43
e 9 44
e 9 45
e 9 47
e 9 48
e 9 49
e 9 50
e 9 58
e 9 59
e 9 60
e 9 63
e 9 64
e 9 66
e 9 69
e 9 70
e 9 71
e 9 78
e 9 79
e 9 81
e 9 85
e 9 86
e 9 87
e 9 88
e 9 89
e 9 90
e 9 92
e 9 96
e 9 100
e 10 11
e 10 13
e 10 16
e 10 17
e 10 18
e 10 19
e 10 21
e 10 24
e 10 26
e 10 28
e 10 29
e 10 30
e 10 31
e 10 32
e 10 33
e 10 34
e 10 35
e 10 37
e 10 39
e 10 40
e 10 41
e 10 43
e 10 44
e 10 46
e 10 47
e 10 49
e 10 50
e 10 52
e 10 53
e 10 55
e 10 59
e 10 60
e 10 64
e 10 66
e 10 67
e 10 68
e 10 69
e 10 71
e 10 73
e 10 76
e 10 77
e 10 80
e 10 81
e 10 87
e 10 88
e 10 89
e 10 90
e 10 91
e 10 93
e 10 94
e 10 95
e 10 96
e 10 99
e 10 100
e 11 16
e 11 21
e 11 22
e 11 23
e 11 24
e 11 26
e 11 28
e 11 30
e 11 31
e 11 32
e 11 33
e 11 34
e 11 35
e 11 36
e 11 37
e 11 42
e 11 47
e 11 48
e 11 49
e 11 51
e 11 52
e 11 55
e 11 56
e 11 57
e 11 59
e 11 63
e 11 64
e 11 65
e 11 66
e 11 67
e 11 69
e 11 70
e 11 71
e 11 72
e 11 73
e 11 77
e 11 79
e 11 80
e 11 81
e 11 82
e 11 84
e 11 85
e 11 86
e 11 97
e 11 98
e 11 100
e 12 16
e 12 17
e 12 18
e 12 19
e 12 21
e 12 23
e 12 25
e 12 26
e 12 27
e 12 28
e 12 30
e 12 32
e 12 33
e 12 36
e 12 37
e 12 38
e 12 40
e 12 41
e 12 42
e 12 46
e 12 47
e 12 49
e 12 50
e 12 53
e 12 58
e 12 59
e 12 65
e 12 67
e 12 68
e 12 69
e 12 74
e 12 80
e 12 81
e 12 83
e 12 84
e 12 85
e 12 89
e 12 91
e 12 92
e 12 96
e 12 98
e 12 99
e 12 100
e 13 14
e 13 15
e 13 16
e 13 18
e 13 20
e 13 21
e 13 22
e 13 24
e 13 28
e 13 30
e 13 31
e 13 32
e 13 33
e 13 37
e 13 38
e 13 46
e 13 47
e 13 50
e 13 53
e 13 56
e 13 62
e 13 64
e 13 67
e 13 68
e 13 70
e 13 71
e 13 72
e 13 77
e 13 80
e 13 89
e 13 90
e 13 91
e 13 93
e 13 94
e 13 96
e 13 100
e 14 18
e 14 19
e 14 20
e 14 22
e 14 23
e 14 25
e 14 28
e 14 29
e 14 30
e 14 32
e 14 34
e 14 35
e 14 36
e 14 39
e 14 41
e 14 44
e 14 45
e 14 47
e 14 51
e 14 52
e 14 53
e 14 54
e 14 55
e 14 56
e 14 57
e 14 60
e 14 67
e 14 69
e 14 71
e 14 72
e 14 74
e 14 75
e 14 76
e 14 77
e 14 82
e 14 84
e 14 85
e 14 86
e 14 88
e 14 90
e 14 91
e 14 94
e 14 96
e 14 97
e 14 99
e 15 16
e 15 17
e 15 18
e 15 20
e 15 21
e 15 23
e 15 24
e 15 26
e 15 30
e 15 31
e 15 32
e 15 33
e 15 36
e 15 39
e 15 40
e 15 43
e 15 44
e 15 45
e 15 46
e 15 51
e 15 55
e 15 58
e 15 60
e 15 61
e 15 64
e 15 66
e 15 67
e 15 68
e 15 69
e 15 72
e 15 75
e 15 77
e 15 80
e 15 82
e 15 84
e 15 85
e 15 86
e 15 88
e 15 94
e 15 95
e 15 96
e 16 17
e 16 18
e 16 19
e 16 21
e 16 22
e 16 24
e 16 26
e 16 28
e 16 29
e 16 31
e 16 32
e 16 33
e 16 34
e 16 35
e 16 36
e 16 37
e 16 39
e 16 45
e 16 47
e 16 48
e 16 49
e 16 51
e 16 53
e 16 54
e 16 56
e 16 59
e 16 60
e 16 61
e 16 63
e 16 64
e 16 70
e 16 72
e 16 74
e 16 75
e 16 76
e 16 79
e 16 82
e 16 83
e 16 85
e 16 88
e 16 89
e 16 91
e 16 93
e 16 95
e 16 96
e 16 98
e 16 100
e 17 18
e 17 20
e 17 24
e 17 26
e 17 28
e 17 30
e 17 32
e 17 33
e 17 36
e 17 37
e 17 38
e 17 39
e 17 43
e 17 46
e 17 50
e 17 56
e 17 62
e 17 63
e 17 66
e 17 68
e 17 70
e 17 76
e 17 83
e 17 84
e 17 85
e 17 88
e 17 90
e 17 91
e 17 93
e 17 94
e 17 95
e 17 97
e 18 20
e 18 21
e 18 22
e 18 24
e 18 25
e 18 26
e 18 30
e 18 31
e 18 33
e 18 34
e 18 35
e 18 36
e 18 38
e 18 39
e 18 40
e 18 41
e 18 42
e 18 43
e 18 44
e 18 45
e 18 46
e 18 54
e 18 56
e 18 57
e 18 58
e 18 59
e 18 60
e 18 62
e 18 63
e 18 66
e 18 67
e 18 69
e 18 70
e 18 71
e 18 77
e 18 79
e 18 80
e 18 81
e 18 84
e 18 86
e 18 87
e 18 88
e 18 90
e 18 92
e 18 93
e 18 95
e 18 96
e 18 97
e 18 98
e 18 100
e 19 21
e 19 25
e 19 27
e 19 28
e 19 29
e 19 30
e 19 32
e 19 33
e 19 38
e 19 41
e 19 47
e 19 48
e 19 49
e 19 52
e 19 58
e 19 60
e 19 61
e 19 62
e 19 65
e 19 67
e 19 69
e 19 70
e 19 74
e 19 75
e 19 78
e 19 84
e 19 86
e 19 87
e 19 89
e 19 90
e 19 91
e 19 94
e 19 96
e 19 98
e 19 100
e 20 21
e 20 22
e 20 26
e 20 28
e 20 31
e 20 34
e 20 35
e 20 36
e 20 39
e 20 42
e 20 44
e 20 47
e 20 53
e 20 54
e 20 55
e 20 56
e 20 57
e 20 59
e 20 61
e 20 64
e 20 66
e 20 67
e 20 68
e 20 72
e 20 73
e 20 74
e 20 76
e 20 77
e 20 78
e 20 79
e 20 81
e 20 82
e 20 89
e 20 91
e 20 92
e 20 96
e 20 97
e 20 99
e 21 22
e 21 29
e 21 30
e 21 31
e 21 32
e 21 33
e 21 34
e 21 35
e 21 36
e 21 38
e 21 39
e 21 41
e 21 44
e 21 46
e 21 48
e 21 49
e 21 50
e 21 51
e 21 52
e 21 54
e 21 55
e 21 57
e 21 58
e 21 62
e 21 68
e 21 77
e 21 80
e 21 81
e 21 84
e 21 86
e 21 87
e 21 92
e 21 93
e 21 94
e 21 95
e 21 100
e 22 23
e 22 25
e 22 26
e 22 29
e 22 30
e 22 31
e 22 32
e 22 33
e 22 34
e 22 35
e 22 36
e 22 37
e 22 38
e 22 44
e 22 47
e 22 49
e 22 51
e 22 52
e 22 53
e 22 56
e 22 58
e 22 59
e 22 60
e 22 62
e 22 63
e 22 66
e 22 68
e 22 72
e 22 73
e 22 77
e 22 79
e 22 80
e 22 81
e 22 84
e 22 87
e 22 89
e 22 90
e 22 91
e 22 93
e 22 95
e 22 96
e 22 100
e 23 24
e 23 25
e 23 26
e 23 27
e 23 33
e 23 34
e 23 36
e 23 38
e 23 45
e 23 46
e 23 47
e 23 49
e 23 50
e 23 51
e 23 52
e 23 53
e 23 55
e 23 59
e 23 60
e 23 63
e 23 64
e 23 67
e 23 69
e 23 72
e 23 77
e 23 79
e 23 80
e 23 82
e 23 83
e 23 84
e 23 86
e 23 87
e 23 88
e 23 94
e 23 95
e 23 96
e 23 97
e 23 99
e 24 25
e 24 26
e 24 27
e 24 28
e 24 29
e 24 30
e 24 32
e 24 33
e 24 34
e 24 35
e 24 36
e 24 37
e 24 40
e 24 42
e 24 44
e 24 47
e 24 48
e 24 50
e 24 51
e 24 55
e 24 57
e 24 60
e 24 61
e 24 65
e 24 73
e 24 74
e 24 75
e 24 76
e 24 78
e 24 79
e 24 83
e 24 84
e 24 86
e 24 87
e 24 90
e 24 92
e 24 94
e 24 95
e 24 98
e 25 27
e 25 28
e 25 29
e 25 30
e 25 31
e 25 34
e 25 38
e 25 39
e 25 41
e 25 44
e 25 46
e 25 47
e 25 48
e 25 49
e 25 50
e 25 54
e 25 55
e 25 61
e 25 63
e 25 65
e 25 66
e 25 70
e 25 74
e 25 75
e 25 76
e 25 77
e 25 78
e 25 80
e 25 81
e 25 82
e 25 83
e 25 84
e 25 85
e 25 89
e 25 90
e 25 92
e 25 93
e 25 94
e 25 97
e 25 98
e 25 100
e 26 30
e 26 31
e 26 34
e 26 39
e 26 42
e 26 43
e 26 44
e 26 45
e 26 47
e 26 48
e 26 50
e 26 53
e 26 54
e 26 55
e 26 56
e 26 58
e 26 60
e 26 62
e 26 64
e 26 66
e 26 67
e 26 68
e 26 69
e 26 71
e 26 77
e 26 78
e 26 81
e 26 84
e 26 88
e 26 89
e 26 90
e 26 93
e 26 95
e 26 97
e 26 98
e 26 99
e 27 31
e 27 32
e 27 33
e 27 35
e 27 36
e 27 37
e 27 38
e 27 40
e 27 41
e 27 42
e 27 45
e 27 46
e 27 52
e 27 56
e 27 57
e 27 59
e 27 60
e 27 63
e 27 64
e 27 65
e 27 69
e 27 70
e 27 71
e 27 73
e 27 75
e 27 77
e 27 82
e 27 83
e 27 87
e 27 88
e 27 90
e 27 91
e 27 93
e 27 95
e 27 96
e 27 97
e 27 98
e 27 100
e 28 30
e 28 32
e 28 34
e 28 35
e 28 36
e 28 37
e 28 38
e 28 41
e 28 42
e 28 43
e 28 44
e 28 46
e 28 48
e 28 49
e 28 50
e 28 55
e 28 56
e 28 62
e 28 70
e 28 71
e 28 74
e 28 88
e 28 89
e 28 93
e 28 96
e 28 97
e 28 98
e 28 100
e 29 30
e 29 31
e 29 32
e 29 34
e 29 37
e 29 39
e 29 42
e 29 43
e 29 48
e 29 49
e 29 53
e 29 54
e 29 56
e 29 57
e 29 58
e 29 64
e 29 65
e 29 67
e 29 68
e 29 69
e 29 71
e 29 72
e 29 74
e 29 76
e 29 79
e 29 80
e 29 81
e 29 84
e 29 85
e 29 86
e 29 87
e 29 89
e 29 90
e 29 91
e 29 93
e 29 94
e 29 95
e 29 100
e 30 32
e 30 33
e 30 34
e 30 37
e 30 38
e 30 40
e 30 41
e 30 42
e 30 44
e 30 45
e 30 46
e 30 47
e 30 48
e 30 49
e 30 52
e 30 53
e 30 54
e 30 57
e 30 59
e 30 65
e 30 67
e 30 68
e 30 71
e 30 72
e 30 73
e 30 75
e 30 79
e 30 81
e 30 84
e 30 86
e 30 87
e 30 90
e 30 92
e 30 93
e 30 94
e 30 96
e 30 97
e 30 98
e 31 39
e 31 41
e 31 43
e 31 44
e 31 45
e 31 46
e 31 48
e 31 49
e 31 51
e 31 53
e 31 54
e 31 58
e 31 59
e 31 60
e 31 61
e 31 62
e 31 64
e 31 65
e 31 69
e 31 71
e 31 74
e 31 75
e 31 78
e 31 80
e 31 81
e 31 82
e 31 84
e 31 85
e 31 87
e 31 88
e 31 91
e 31 92
e 31 95
e 31 97
e 31 98
e 31 99
e 31 100
e 32 35
e 32 38
e 32 39
e 32 44
e 32 45
e 32 46
e 32 47
e 32 51
e 32 52
e 32 53
e 32 56
e 32 57
e 32 59
e 32 61
e 32 63
e 32 66
e 32 67
e 32 68
e 32 70
e 32 71
e 32 74
e 32 75
e 32 76
e 32 77
e 32 78
e 32 79
e 32 83
e 32 84
e 32 86
e 32 89
e 32 92
e 32 93
e 32 94
e 32 95
e 32 96
e 32 97
e 32 99
e 32 100
e 33 36
e 33 40
e 33 48
e 33 49
e 33 52
e 33 55
e 33 57
e 33 60
e 33 61
e 33 65
e 33 67
e 33 68
e 33 69
e 33 70
e 33 72
e 33 73
e 33 82
e 33 85
e 33 87
e 33 89
e 33 91
e 33 92
e 33 93
e 33 94
e 33 95
e 33 96
e 33 99
e 34 37
e 34 39
e 34 40
e 34 42
e 34 43
e 34 44
e 34 46
e 34 47
e 34 48
e 34 53
e 34 54
e 34 55
e 34 58
e 34 59
e 34 61
e 34 62
e 34 63
e 34 64
e 34 68
e 34 71
e 34 74
e 34 75
e 34 76
e 34 78
e 34 79
e 34 83
e 34 84
e 34 86
e 34 87
e 34 88
e 34 89
e 34 90
e 34 95
e 34 97
e 34 98
e 35 37
e 35 39
e 35 40
e 35 41
e 35 42
e 35 44
e 35 45
e 35 46
e 35 50
e 35 52
e 35 53
e 35 55
e 35 58
e 35 61
e 35 65
e 35 66
e 35 70
e 35 72
e 35 74
e 35 75
e 35 78
e 35 79
e 35 82
e 35 84
e 35 85
e 35 87
e 35 88
e 35 89
e 35 90
e 35 91
e 35 93
e 35 94
e 35 95
e 35 96
e 35 97
e 35 99
e 35 100
e 36 39
e 36 40
e 36 42
e 36 43
e 36 44
e 36 50
e 36 52
e 36 54
e 36 58
e 36 59
e 36 62
e 36 64
e 36 70
e 36 73
e 36 77
e 36 79
e 36 85
e 36 86
e 36 87
e 36 88
e 36 90
e 36 92
e 36 94
e 36 95
e 36 96
e 36 97
e 37 38
e 37 39
e 37 42
e 37 43
e 37 44
e 37 49
e 37 50
e 37 52
e 37 53
e 37 54
e 37 56
e 37 57
e 37 59
e 37 60
e 37 61
e 37 62
e 37 63
e 37 64
e 37 66
e 37 67
e 37 69
e 37 70
e 37 71
e 37 73
e 37 77
e 37 89
e 37 91
e 37 94
e 37 95
e 37 96
e 37 97
e 37 100
e 38 40
e 38 44
e 38 46
e 38 53
e 38 56
e 38 59
e 38 61
e 38 62
e 38 63
e 38 64
e 38 65
e 38 68
e 38 69
e 38 70
e 38 74
e 38 75
e 38 76
e 38 77
e 38 81
e 38 84
e 38 86
e 38 88
e 38 89
e 38 90
e 38 91
e 38 93
e 38 94
e 38 95
e 38 97
e 39 44
e 39 46
e 39 47
e 39 50
e 39 51
e 39 54
e 39 59
e 39 63
e 39 65
e 39 68
e 39 69
e 39 70
e 39 71
e 39 73
e 39 74
e 39 76
e 39 77
e 39 80
e 39 82
e 39 86
e 39 91
e 39 92
e 39 93
e 39 94
e 39 95
e 39 99
e 40 41
e 40 45
e 40 46
e 40 49
e 40 50
e 40 51
e 40 53
e 40 57
e 40 61
e 40 63
e 40 64
e 40 66
e 40 68
e 40 70
e 40 73
e 40 75
e 40 79
e 40 80
e 40 82
e 40 86
e 40 87
e 40 88
e 40 90
e 40 91
e 40 92
e 40 94
e 40 98
e 40 99
e 40 100
e 41 42
e 41 43
e 41 44
e 41 45
e 41 46
e 41 47
e 41 49
e 41 50
e 41 53
e 41 54
e 41 63
e 41 66
e 41 67
e 41 68
e 41 70
e 41 72
e 41 73
e 41 74
e 41 75
e 41 76
e 41 78
e 41 81
e 41 83
e 41 87
e 41 89
e 41 91
e 41 96
e 41 97
e 41 98
e 42 43
e 42 45
e 42 47
e 42 48
e 42 49
e 42 50
e 42 51
e 42 52
e 42 53
e 42 54
e 42 55
e 42 58
e 42 59
e 42 60
e 42 65
e 42 66
e 42 72
e 42 80
e 42 82
e 42 84
e 42 85
e 42 86
e 42 87
e 42 89
e 42 90
e 42 92
e 42 93
e 42 94
e 42 95
e 42 96
e 42 98
e 42 99
e 42 100
e 43 44
e 43 45
e 43 47
e 43 48
e 43 49
e 43 50
e 43 51
e 43 52
e 43 54
e 43 55
e 43 58
e 43 62
e 43 64
e 43 66
e 43 67
e 43 69
e 43 74
e 43 75
e 43 80
e 43 81
e 43 82
e 43 84
e 43 88
e 43 89
e 43 90
e 43 92
e 43 94
e 43 95
e 43 97
e 44 45
e 44 50
e 44 53
e 44 54
e 44 56
e 44 58
e 44 61
e 44 62
e 44 64
e 44 65
e 44 68
e 44 70
e 44 71
e 44 73
e 44 74
e 44 75
e 44 76
e 44 77
e 44 82
e 44 84
e 44 85
e 44 87
e 44 88
e 44 89
e 44 90
e 44 92
e 44 99
e 44 100
e 45 47
e 45 48
e 45 49
e 45 54
e 45 55
e 45 61
e 45 62
e 45 63
e 45 64
e 45 66
e 45 67
e 45 69
e 45 71
e 45 73
e 45 74
e 45 77
e 45 79
e 45 80
e 45 81
e 45 84
e 45 85
e 45 86
e 45 87
e 45 90
e 45 91
e 45 93
e 45 96
e 45 97
e 45 98
e 46 49
e 46 50
e 46 52
e 46 54
e 46 57
e 46 59
e 46 60
e 46 61
e 46 64
e 46 65
e 46 66
e 46 68
e 46 69
e 46 74
e 46 84
e 46 85
e 46 86
e 46 87
e 46 89
e 46 97
e 46 100
e 47 50
e 47 52
e 47 56
e 47 58
e 47 59
e 47 60
e 47 67
e 47 68
e 47 72
e 47 74
e 47 75
e 47 77
e 47 79
e 47 81
e 47 82
e 47 84
e 47 86
e 47 87
e 47 90
e 47 93
e 47 94
e 47 97
e 48 49
e 48 51
e 48 52
e 48 53
e 48 54
e 48 55
e 48 56
e 48 59
e 48 60
e 48 64
e 48 66
e 48 67
e 48 68
e 48 70
e 48 71
e 48 72
e 48 75
e 48 76
e 48 77
e 48 78
e 48 79
e 48 82
e 48 85
e 48 87
e 48 89
e 48 90
e 48 91
e 48 92
e 48 93
e 48 95
e 48 96
e 48 97
e 48 98
e 48 99
e 48 100
e 49 50
e 49 51
e 49 54
e 49 55
e 49 56
e 49 58
e 49 60
e 49 61
e 49 66
e 49 67
e 49 71
e 49 75
e 49 79
e 49 81
e 49 83
e 49 86
e 49 87
e 49 90
e 49 91
e 49 94
e 49 95
e 49 97
e 49 98
e 49 99
e 50 53
e 50 54
e 50 55
e 50 56
e 50 57
e 50 58
e 50 62
e 50 64
e 50 66
e 50 69
e 50 71
e 50 72
e 50 73
e 50 74
e 50 81
e 50 84
e 50 85
e 50 87
e 50 88
e 50 90
e 50 92
e 50 93
e 50 95
e 50 96
e 50 98
e 50 99
e 51 52
e 51 58
e 51 61
e 51 62
e 51 64
e 51 68
e 51 69
e 51 73
e 51 76
e 51 77
e 51 78
e 51 79
e 51 85
e 51 90
e 51 93
e 51 94
e 51 95
e 51 96
e 51 98
e 51 99
e 51 100
e 52 53
e 52 55
e 52 56
e 52 58
e 52 62
e 52 63
e 52 64
e 52 68
e 52 74
e 52 76
e 52 77
e 52 78
e 52 79
e 52 82
e 52 87
e 52 88
e 52 89
e 52 91
e 52 92
e 53 54
e 53 55
e 53 59
e 53 60
e 53 61
e 53 62
e 53 63
e 53 65
e 53 66
e 53 67
e 53 69
e 53 72
e 53 73
e 53 74
e 53 77
e 53 80
e 53 82
e 53 85
e 53 87
e 53 89
e 53 90
e 53 91
e 53 99
e 53 100
e 54 57
e 54 59
e 54 60
e 54 62
e 54 63
e 54 65
e 54 66
e 54 67
e 54 68
e 54 69
e 54 70
e 54 71
e 54 72
e 54 74
e 54 75
e 54 76
e 54 77
e 54 78
e 54 79
e 54 82
e 54 83
e 54 84
e 54 91
e 54 92
e 54 94
e 54 95
e 54 97
e 54 100
e 55 57
e 55 59
e 55 61
e 55 62
e 55 63
e 55 67
e 55 70
e 55 75
e 55 76
e 55 77
e 55 79
e 55 81
e 55 82
e 55 83
e 55 88
e 55 89
e 55 90
e 55 91
e 55 92
e 55 94
e 55 95
e 55 96
e 55 98
e 55 99
e 56 57
e 56 66
e 56 67
e 56 68
e 56 69
e 56 70
e 56 71
e 56 74
e 56 76
e 56 78
e 56 79
e 56 83
e 56 87
e 56 89
e 56 90
e 56 91
e 56 97
e 56 99
e 57 59
e 57 61
e 57 65
e 57 68
e 57 71
e 57 73
e 57 78
e 57 80
e 57 84
e 57 85
e 57 86
e 57 87
e 57 89
e 57 91
e 57 93
e 57 94
e 57 95
e 57 96
e 57 97
e 57 99
e 57 100
e 58 61
e 58 62
e 58 64
e 58 65
e 58 66
e 58 70
e 58 71
e 58 72
e 58 74
e 58 75
e 58 76
e 58 77
e 58 78
e 58 79
e 58 80
e 58 81
e 58 82
e 58 84
e 58 85
e 58 87
e 58 88
e 58 90
e 58 94
e 58 95
e 58 96
e 58 99
e 59 63
e 59 65
e 59 66
e 59 69
e 59 71
e 59 72
e 59 73
e 59 74
e 59 76
e 59 78
e 59 79
e 59 80
e 59 81
e 59 83
e 59 84
e 59 86
e 59 91
e 59 93
e 59 99
e 60 62
e 60 63
e 60 64
e 60 65
e 60 69
e 60 70
e 60 71
e 60 75
e 60 80
e 60 81
e 60 82
e 60 84
e 60 87
e 60 88
e 60 89
e 60 93
e 60 98
e 60 100
e 61 64
e 61 66
e 61 67
e 61 68
e 61 70
e 61 72
e 61 74
e 61 77
e 61 78
e 61 80
e 61 82
e 61 83
e 61 88
e 61 90
e 61 91
e 61 92
e 61 93
e 61 96
e 61 97
e 61 100
e 62 63
e 62 64
e 62 67
e 62 68
e 62 70
e 62 73
e 62 75
e 62 78
e 62 81
e 62 86
e 62 87
e 62 88
e 62 91
e 62 93
e 62 100
e 63 65
e 63 66
e 63 68
e 63 70
e 63 71
e 63 79
e 63 81
e 63 82
e 63 86
e 63 90
e 63 92
e 63 93
e 63 94
e 63 95
e 63 96
e 63 97
e 64 65
e 64 66
e 64 67
e 64 68
e 64 70
e 64 74
e 64 79
e 64 80
e 64 82
e 64 83
e 64 84
e 64 87
e 64 90
e 64 91
e 64 92
e 64 93
e 64 94
e 64 96
e 64 98
e 64 99
e 65 68
e 65 69
e 65 71
e 65 72
e 65 73
e 65 74
e 65 76
e 65 77
e 65 79
e 65 82
e 65 84
e 65 85
e 65 87
e 65 88
e 65 89
e 65 90
e 65 91
e 65 92
e 65 93
e 65 95
e 65 96
e 66 70
e 66 71
e 66 72
e 66 74
e 66 77
e 66 78
e 66 81
e 66 82
e 66 84
e 66 86
e 66 87
e 66 91
e 66 92
e 66 94
e 66 95
e 66 98
e 66 99
e 67 70
e 67 72
e 67 73
e 67 74
e 67 78
e 67 79
e 67 80
e 67 83
e 67 84
e 67 85
e 67 87
e 67 88
e 67 92
e 67 96
e 67 98
e 68 69
e 68 71
e 68 73
e 68 75
e 68 77
e 68 78
e 68 83
e 68 85
e 68 90
e 68 91
e 68 95
e 68 96
e 68 99
e 68 100
e 69 70
e 69 71
e 69 72
e 69 76
e 69 78
e 69 79
e 69 80
e 69 81
e 69 82
e 69 83
e 69 88
e 69 90
e 69 92
e 69 94
e 69 95
e 69 98
e 69 99
e 69 100
e 70 71
e 70 72
e 70 75
e 70 78
e 70 80
e 70 82
e 70 83
e 70 85
e 70 88
e 70 89
e 70 90
e 70 91
e 70 92
e 70 94
e 70 95
e 70 97
e 70 99
e 71 73
e 71 74
e 71 76
e 71 77
e 71 78
e 71 80
e 71 83
e 71 84
e 71 85
e 71 88
e 71 89
e 71 90
e 71 94
e 71 96
e 71 98
e 71 99
e 72 74
e 72 78
e 72 79
e 72 80
e 72 82
e 72 83
e 72 84
e 72 85
e 72 87
e 72 88
e 72 91
e 72 93
e 72 95
e 72 96
e 72 98
e 72 99
e 73 74
e 73 75
e 73 79
e 73 81
e 73 82
e 73 84
e 73 85
e 73 86
e 73 88
e 73 89
e 73 98
e 74 75
e 74 76
e 74 77
e 74 79
e 74 80
e 74 83
e 74 84
e 74 86
e 74 87
e 74 89
e 74 93
e 74 94
e 74 96
e 74 97
e 74 98
e 74 99
e 74 100
e 75 79
e 75 81
e 75 84
e 75 86
e 75 88
e 75 89
e 75 90
e 75 92
e 75 93
e 75 94
e 75 95
e 75 100
e 76 77
e 76 79
e 76 80
e 76 82
e 76 83
e 76 84
e 76 85
e 76 86
e 76 88
e 76 89
e 76 91
e 76 92
e 76 93
e 76 94
e 76 95
e 76 98
e 76 100
e 77 78
e 77 79
e 77 80
e 77 81
e 77 87
e 77 89
e 77 90
e 77 91
e 77 92
e 77 94
e 77 95
e 77 96
e 77 100
e 78 85
e 78 88
e 78 93
e 78 94
e 78 97
e 78 98
e 78 99
e 78 100
e 79 84
e 79 85
e 79 87
e 79 88
e 79 94
e 79 95
e 79 97
e 79 98
e 80 83
e 80 85
e 80 88
e 80 89
e 80 90
e 80 94
e 80 96
e 80 97
e 80 100
e 81 82
e 81 84
e 81 85
e 81 86
e 81 88
e 81 89
e 81 93
e 81 98
e 82 83
e 82 86
e 82 87
e 82 88
e 82 89
e 82 91
e 82 92
e 82 95
e 82 96
e 82 97
e 82 99
e 82 100
e 83 85
e 83 91
e 83 92
e 83 96
e 83 100
e 84 85
e 84 86
e 84 88
e 84 90
e 84 94
e 84 97
e 84 98
e 84 99
e 85 89
e 85 91
e 85 92
e 85 93
e 85 95
e 85 96
e 86 88
e 86 89
e 86 90
e 86 93
e 86 95
e 86 96
e 86 100
e 87 88
e 87 89
e 87 90
e 87 91
e 87 92
e 87 93
e 87 94
e 87 98
e 87 100
e 88 90
e 88 91
e 88 93
e 89 90
e 89 92
e 89 95
e 89 99
e 89 100
e 90 94
e 90 95
e 90 97
e 90 99
e 90 100
e 91 92
e 91 95
e 91 96
e 91 97
e 91 98
e 92 93
e 92 95
e 92 99
e 93 94
e 93 98
e 93 99
e 93 100
e 94 95
e 94 99
e 96 97
e 96 98
e 96 100
e 97 100
e 98 99
e 98 100
